param set_len = 38;
param target_sum = 8408649921;
param values := [1] 487145065 [2] 178528924 [3] 885788331 [4] 78379661 [5] 84621785 [6] 973009568 [7] 249409855 [8] 287461081 [9] 454566383 [10] 379882422 [11] 357421893 [12] 377276049 [13] 864310827 [14] 359150453 [15] 874396733 [16] 506277276 [17] 728960173 [18] 77920497 [19] 1053270992 [20] 796270481 [21] 1011700235 [22] 965779796 [23] 209831995 [24] 88500584 [25] 783093063 [26] 70504679 [27] 599208859 [28] 672386502 [29] 59814013 [30] 696584788 [31] 923275580 [32] 20055607 [33] 593920758 [34] 913204060 [35] 637803487 [36] 1040959831 [37] 951554218 [38] 267005785 ;
